130
30
5
43
56
28
71
119
94
89
19
128
44
66
74
59
131
70
102
21
122
68
108
58
109
145
113
138
2
49
29
61
82
105
99
14
69
3
118
73
136
81
97
144
96
87
150
48
84
52
11
103
16
135
146
37
32
137
125
117
46
10
100
33
45
36
57
60
140
41
80
31
107
141
92
63
51
127
120
12
143
4
116
40
1
53
85
110
55
42
47
90
17
106
134
149
6
23
91
111
123
95
86
76
121
139
129
101
88
148
98
34
25
114
22
8
112
75
65
13
27
93
18
26
7
78
9
132
142
24
15
104
54
62
83
126
39
38
124
72
133
50
35
77
115
147
67
64
20
79
130
